
ASes= { 1, 2, 3, 4, 5 } ;


Objects= { 1, 2, 3, 4, 5, 6, 7, 8, 9, 10, 11, 12, 13, 14, 15, 16, 17, 18, 19, 20, 21, 22, 23, 24, 25, 26, 27, 28, 29, 30, 31, 32, 33, 34, 35, 36, 37, 38, 39, 40, 41, 42, 43, 44, 45, 46, 47, 48, 49, 50, 51, 52, 53, 54, 55, 56, 57, 58, 59, 60, 61, 62, 63, 64, 65, 66, 67, 68, 69, 70, 71, 72, 73, 74, 75, 76, 77, 78, 79, 80, 81, 82, 83, 84, 85, 86, 87, 88, 89, 90, 91, 92, 93, 94, 95, 96, 97, 98, 99, 100, 101, 102, 103, 104, 105, 106, 107, 108, 109, 110, 111, 112, 113, 114, 115, 116, 117, 118, 119, 120, 121, 122, 123, 124, 125, 126, 127, 128, 129, 130, 131, 132, 133, 134, 135, 136, 137, 138, 139, 140, 141, 142, 143, 144, 145, 146, 147, 148, 149, 150, 151, 152, 153, 154, 155, 156, 157, 158, 159, 160, 161, 162, 163, 164, 165, 166, 167, 168, 169, 170, 171, 172, 173, 174, 175, 176, 177, 178, 179, 180, 181, 182, 183, 184, 185, 186, 187, 188, 189, 190, 191, 192, 193, 194, 195, 196, 197, 198, 199, 200, 201, 202, 203, 204, 205, 206, 207, 208, 209, 210, 211, 212, 213, 214, 215, 216, 217, 218, 219, 220, 221, 222, 223, 224, 225, 226, 227, 228, 229, 230, 231, 232, 233, 234, 235, 236, 237, 238, 239, 240, 241, 242, 243, 244, 245, 246, 247, 248, 249, 250, 251, 252, 253, 254, 255, 256, 257, 258, 259, 260, 261, 262, 263, 264, 265, 266, 267, 268, 269, 270, 271, 272, 273, 274, 275, 276, 277, 278, 279, 280, 281, 282, 283, 284, 285, 286, 287, 288, 289, 290, 291, 292, 293, 294, 295, 296, 297, 298, 299, 300, 301, 302, 303, 304, 305, 306, 307, 308, 309, 310, 311, 312, 313, 314, 315, 316, 317, 318, 319, 320, 321, 322, 323, 324, 325, 326, 327, 328, 329, 330, 331, 332, 333, 334, 335, 336, 337, 338, 339, 340, 341, 342, 343, 344, 345, 346, 347, 348, 349, 350, 351, 352, 353, 354, 355, 356, 357, 358, 359, 360, 361, 362, 363, 364, 365, 366, 367, 368, 369, 370, 371, 372, 373, 374, 375, 376, 377, 378, 379, 380, 381, 382, 383, 384, 385, 386, 387, 388, 389, 390, 391, 392, 393, 394, 395, 396, 397, 398, 399, 400, 401, 402, 403, 404, 405, 406, 407, 408, 409, 410, 411, 412, 413, 414, 415, 416, 417, 418, 419, 420, 421, 422, 423, 424, 425, 426, 427, 428, 429, 430, 431, 432, 433, 434, 435, 436, 437, 438, 439, 440, 441, 442, 443, 444, 445, 446, 447, 448, 449, 450, 451, 452, 453, 454, 455, 456, 457, 458, 459, 460, 461, 462, 463, 464, 465, 466, 467, 468, 469, 470, 471, 472, 473, 474, 475, 476, 477, 478, 479, 480, 481, 482, 483, 484, 485, 486, 487, 488, 489, 490, 491, 492, 493, 494, 495, 496, 497, 498, 499, 500 } ;


QualityLevels= { 0, 1, 2, 3, 4, 5 } ;

Arcs = { <1,2,490000>, <2,1,490000>,<1,3,490000>, <3,1,490000>,<1,4,490000>, <4,1,490000>,<2,5,490000>, <5,2,490000> }; 


RatePerQuality= [ 0  300  700  1500  2500  3500 ] ;


CacheSpacePerQuality= [ 10000  11.25  26.25  56.25  93.75  131.25 ] ;


UtilityPerQuality= [ 0  0.2  0.4  0.6  0.8  1 ] ;


ObjectsPublishedByProducers=[ [ 0  0  1  0  0 ]  [ 1  0  0  0  0 ]  [ 0  1  0  0  0 ]  [ 0  0  0  1  0 ]  [ 0  0  0  0  1 ]  [ 0  0  0  0  1 ]  [ 0  1  0  0  0 ]  [ 0  1  0  0  0 ]  [ 0  0  1  0  0 ]  [ 0  0  1  0  0 ]  [ 1  0  0  0  0 ]  [ 0  0  0  0  1 ]  [ 0  1  0  0  0 ]  [ 0  0  1  0  0 ]  [ 0  0  0  0  1 ]  [ 0  1  0  0  0 ]  [ 0  0  0  1  0 ]  [ 1  0  0  0  0 ]  [ 1  0  0  0  0 ]  [ 0  0  1  0  0 ]  [ 0  0  1  0  0 ]  [ 0  0  0  0  1 ]  [ 1  0  0  0  0 ]  [ 0  0  0  1  0 ]  [ 0  0  0  1  0 ]  [ 0  0  0  0  1 ]  [ 0  0  1  0  0 ]  [ 0  0  0  1  0 ]  [ 0  0  0  0  1 ]  [ 0  0  0  0  1 ]  [ 0  0  0  1  0 ]  [ 0  0  0  1  0 ]  [ 0  0  0  1  0 ]  [ 0  0  0  0  1 ]  [ 0  0  0  1  0 ]  [ 0  0  1  0  0 ]  [ 1  0  0  0  0 ]  [ 0  0  0  0  1 ]  [ 0  1  0  0  0 ]  [ 0  0  1  0  0 ]  [ 1  0  0  0  0 ]  [ 1  0  0  0  0 ]  [ 0  0  1  0  0 ]  [ 0  0  0  1  0 ]  [ 0  1  0  0  0 ]  [ 0  1  0  0  0 ]  [ 1  0  0  0  0 ]  [ 0  0  0  0  1 ]  [ 1  0  0  0  0 ]  [ 0  1  0  0  0 ]  [ 0  0  0  1  0 ]  [ 0  0  0  0  1 ]  [ 1  0  0  0  0 ]  [ 1  0  0  0  0 ]  [ 0  0  0  0  1 ]  [ 0  0  0  0  1 ]  [ 0  0  1  0  0 ]  [ 0  0  0  1  0 ]  [ 0  1  0  0  0 ]  [ 0  0  0  0  1 ]  [ 0  0  1  0  0 ]  [ 0  0  0  0  1 ]  [ 0  1  0  0  0 ]  [ 0  1  0  0  0 ]  [ 0  0  0  1  0 ]  [ 0  0  0  0  1 ]  [ 0  0  0  0  1 ]  [ 0  1  0  0  0 ]  [ 0  0  0  0  1 ]  [ 0  0  0  1  0 ]  [ 0  0  0  0  1 ]  [ 0  0  1  0  0 ]  [ 0  0  1  0  0 ]  [ 0  1  0  0  0 ]  [ 1  0  0  0  0 ]  [ 0  0  0  0  1 ]  [ 0  0  0  1  0 ]  [ 0  0  1  0  0 ]  [ 0  0  0  0  1 ]  [ 1  0  0  0  0 ]  [ 0  1  0  0  0 ]  [ 0  0  0  0  1 ]  [ 1  0  0  0  0 ]  [ 0  0  0  1  0 ]  [ 0  0  0  0  1 ]  [ 1  0  0  0  0 ]  [ 0  0  0  0  1 ]  [ 0  0  0  0  1 ]  [ 0  0  0  1  0 ]  [ 0  0  0  0  1 ]  [ 1  0  0  0  0 ]  [ 0  0  1  0  0 ]  [ 0  1  0  0  0 ]  [ 1  0  0  0  0 ]  [ 1  0  0  0  0 ]  [ 0  1  0  0  0 ]  [ 1  0  0  0  0 ]  [ 0  0  0  0  1 ]  [ 0  0  0  0  1 ]  [ 0  0  0  0  1 ]  [ 0  0  1  0  0 ]  [ 1  0  0  0  0 ]  [ 0  0  0  0  1 ]  [ 0  0  1  0  0 ]  [ 0  0  0  0  1 ]  [ 0  0  0  0  1 ]  [ 0  0  0  1  0 ]  [ 0  0  0  1  0 ]  [ 0  0  0  0  1 ]  [ 0  1  0  0  0 ]  [ 0  1  0  0  0 ]  [ 0  0  0  0  1 ]  [ 0  0  1  0  0 ]  [ 0  0  0  1  0 ]  [ 0  0  1  0  0 ]  [ 0  0  0  0  1 ]  [ 1  0  0  0  0 ]  [ 0  1  0  0  0 ]  [ 0  1  0  0  0 ]  [ 1  0  0  0  0 ]  [ 0  0  0  1  0 ]  [ 1  0  0  0  0 ]  [ 0  1  0  0  0 ]  [ 0  0  1  0  0 ]  [ 0  0  1  0  0 ]  [ 0  0  1  0  0 ]  [ 0  1  0  0  0 ]  [ 0  0  0  1  0 ]  [ 0  0  1  0  0 ]  [ 0  1  0  0  0 ]  [ 0  0  0  1  0 ]  [ 0  0  1  0  0 ]  [ 0  0  1  0  0 ]  [ 0  0  0  0  1 ]  [ 0  0  1  0  0 ]  [ 0  0  0  1  0 ]  [ 0  1  0  0  0 ]  [ 0  0  0  0  1 ]  [ 0  0  0  1  0 ]  [ 0  0  0  0  1 ]  [ 0  0  1  0  0 ]  [ 0  0  0  1  0 ]  [ 0  0  0  0  1 ]  [ 0  0  1  0  0 ]  [ 0  0  1  0  0 ]  [ 1  0  0  0  0 ]  [ 0  0  0  0  1 ]  [ 0  0  0  1  0 ]  [ 0  1  0  0  0 ]  [ 1  0  0  0  0 ]  [ 0  0  1  0  0 ]  [ 0  0  1  0  0 ]  [ 0  0  1  0  0 ]  [ 0  1  0  0  0 ]  [ 0  0  1  0  0 ]  [ 0  1  0  0  0 ]  [ 0  1  0  0  0 ]  [ 0  0  0  0  1 ]  [ 0  0  0  1  0 ]  [ 1  0  0  0  0 ]  [ 0  1  0  0  0 ]  [ 0  0  0  0  1 ]  [ 0  0  0  1  0 ]  [ 0  1  0  0  0 ]  [ 0  0  0  1  0 ]  [ 0  0  0  0  1 ]  [ 0  0  0  1  0 ]  [ 0  1  0  0  0 ]  [ 0  0  1  0  0 ]  [ 0  0  0  1  0 ]  [ 1  0  0  0  0 ]  [ 1  0  0  0  0 ]  [ 0  0  0  1  0 ]  [ 1  0  0  0  0 ]  [ 0  0  0  1  0 ]  [ 1  0  0  0  0 ]  [ 0  1  0  0  0 ]  [ 0  0  0  0  1 ]  [ 0  0  0  1  0 ]  [ 0  0  1  0  0 ]  [ 1  0  0  0  0 ]  [ 0  0  1  0  0 ]  [ 1  0  0  0  0 ]  [ 1  0  0  0  0 ]  [ 0  0  0  0  1 ]  [ 0  0  1  0  0 ]  [ 1  0  0  0  0 ]  [ 1  0  0  0  0 ]  [ 0  1  0  0  0 ]  [ 0  0  0  0  1 ]  [ 0  0  0  1  0 ]  [ 0  0  0  1  0 ]  [ 0  0  0  1  0 ]  [ 0  1  0  0  0 ]  [ 0  0  0  0  1 ]  [ 0  0  1  0  0 ]  [ 0  0  1  0  0 ]  [ 0  1  0  0  0 ]  [ 0  0  0  1  0 ]  [ 0  0  0  0  1 ]  [ 0  0  0  1  0 ]  [ 1  0  0  0  0 ]  [ 1  0  0  0  0 ]  [ 0  0  1  0  0 ]  [ 0  0  0  1  0 ]  [ 0  0  0  1  0 ]  [ 1  0  0  0  0 ]  [ 0  1  0  0  0 ]  [ 0  0  0  1  0 ]  [ 0  0  0  1  0 ]  [ 0  1  0  0  0 ]  [ 1  0  0  0  0 ]  [ 1  0  0  0  0 ]  [ 0  0  0  1  0 ]  [ 1  0  0  0  0 ]  [ 0  1  0  0  0 ]  [ 0  0  0  0  1 ]  [ 1  0  0  0  0 ]  [ 0  0  0  1  0 ]  [ 0  1  0  0  0 ]  [ 0  0  1  0  0 ]  [ 0  0  1  0  0 ]  [ 1  0  0  0  0 ]  [ 0  0  0  1  0 ]  [ 0  1  0  0  0 ]  [ 0  1  0  0  0 ]  [ 1  0  0  0  0 ]  [ 0  0  0  1  0 ]  [ 0  0  0  1  0 ]  [ 0  0  0  1  0 ]  [ 1  0  0  0  0 ]  [ 0  1  0  0  0 ]  [ 1  0  0  0  0 ]  [ 1  0  0  0  0 ]  [ 0  0  1  0  0 ]  [ 0  0  0  0  1 ]  [ 0  0  1  0  0 ]  [ 0  0  1  0  0 ]  [ 0  0  1  0  0 ]  [ 1  0  0  0  0 ]  [ 0  1  0  0  0 ]  [ 1  0  0  0  0 ]  [ 0  0  0  1  0 ]  [ 0  1  0  0  0 ]  [ 0  1  0  0  0 ]  [ 0  0  0  1  0 ]  [ 0  0  0  0  1 ]  [ 0  0  0  1  0 ]  [ 0  0  1  0  0 ]  [ 0  0  0  1  0 ]  [ 1  0  0  0  0 ]  [ 0  0  0  0  1 ]  [ 1  0  0  0  0 ]  [ 0  0  0  0  1 ]  [ 0  0  0  1  0 ]  [ 0  1  0  0  0 ]  [ 1  0  0  0  0 ]  [ 0  0  1  0  0 ]  [ 0  1  0  0  0 ]  [ 0  0  1  0  0 ]  [ 0  0  1  0  0 ]  [ 1  0  0  0  0 ]  [ 0  0  1  0  0 ]  [ 0  0  0  1  0 ]  [ 1  0  0  0  0 ]  [ 0  0  0  0  1 ]  [ 0  0  1  0  0 ]  [ 0  0  1  0  0 ]  [ 0  0  0  1  0 ]  [ 0  1  0  0  0 ]  [ 0  0  1  0  0 ]  [ 1  0  0  0  0 ]  [ 0  0  0  1  0 ]  [ 1  0  0  0  0 ]  [ 1  0  0  0  0 ]  [ 0  0  0  1  0 ]  [ 0  0  0  1  0 ]  [ 0  0  0  0  1 ]  [ 0  0  1  0  0 ]  [ 0  1  0  0  0 ]  [ 0  0  1  0  0 ]  [ 0  0  1  0  0 ]  [ 1  0  0  0  0 ]  [ 0  0  0  1  0 ]  [ 0  0  0  0  1 ]  [ 0  0  0  0  1 ]  [ 0  0  0  1  0 ]  [ 0  0  1  0  0 ]  [ 1  0  0  0  0 ]  [ 1  0  0  0  0 ]  [ 1  0  0  0  0 ]  [ 0  0  1  0  0 ]  [ 0  0  0  1  0 ]  [ 0  1  0  0  0 ]  [ 1  0  0  0  0 ]  [ 0  0  0  0  1 ]  [ 0  1  0  0  0 ]  [ 0  1  0  0  0 ]  [ 0  0  0  1  0 ]  [ 0  0  0  0  1 ]  [ 0  0  0  1  0 ]  [ 0  0  0  1  0 ]  [ 0  0  1  0  0 ]  [ 0  0  0  1  0 ]  [ 1  0  0  0  0 ]  [ 0  0  0  0  1 ]  [ 0  1  0  0  0 ]  [ 0  1  0  0  0 ]  [ 1  0  0  0  0 ]  [ 0  0  0  1  0 ]  [ 0  0  0  1  0 ]  [ 0  0  0  1  0 ]  [ 0  0  0  1  0 ]  [ 1  0  0  0  0 ]  [ 1  0  0  0  0 ]  [ 0  0  0  1  0 ]  [ 0  0  0  1  0 ]  [ 0  0  0  0  1 ]  [ 0  0  0  0  1 ]  [ 0  0  0  0  1 ]  [ 0  0  0  1  0 ]  [ 0  0  1  0  0 ]  [ 0  0  0  1  0 ]  [ 0  0  1  0  0 ]  [ 0  0  0  0  1 ]  [ 0  0  1  0  0 ]  [ 0  0  1  0  0 ]  [ 0  1  0  0  0 ]  [ 0  0  0  1  0 ]  [ 0  1  0  0  0 ]  [ 0  0  0  0  1 ]  [ 1  0  0  0  0 ]  [ 0  0  1  0  0 ]  [ 0  0  0  0  1 ]  [ 0  1  0  0  0 ]  [ 0  0  1  0  0 ]  [ 1  0  0  0  0 ]  [ 0  0  1  0  0 ]  [ 0  1  0  0  0 ]  [ 1  0  0  0  0 ]  [ 1  0  0  0  0 ]  [ 0  0  0  1  0 ]  [ 0  0  1  0  0 ]  [ 0  0  0  0  1 ]  [ 1  0  0  0  0 ]  [ 0  0  0  1  0 ]  [ 1  0  0  0  0 ]  [ 0  0  1  0  0 ]  [ 1  0  0  0  0 ]  [ 0  0  1  0  0 ]  [ 0  0  0  1  0 ]  [ 1  0  0  0  0 ]  [ 1  0  0  0  0 ]  [ 1  0  0  0  0 ]  [ 1  0  0  0  0 ]  [ 0  1  0  0  0 ]  [ 0  1  0  0  0 ]  [ 0  0  1  0  0 ]  [ 0  0  0  0  1 ]  [ 0  0  1  0  0 ]  [ 0  1  0  0  0 ]  [ 0  1  0  0  0 ]  [ 0  0  0  1  0 ]  [ 0  0  1  0  0 ]  [ 1  0  0  0  0 ]  [ 1  0  0  0  0 ]  [ 0  0  0  0  1 ]  [ 0  0  0  0  1 ]  [ 1  0  0  0  0 ]  [ 0  0  0  0  1 ]  [ 0  0  0  1  0 ]  [ 0  0  0  1  0 ]  [ 0  0  0  1  0 ]  [ 0  0  1  0  0 ]  [ 0  1  0  0  0 ]  [ 0  0  0  0  1 ]  [ 0  0  0  0  1 ]  [ 0  0  1  0  0 ]  [ 0  0  0  1  0 ]  [ 0  0  1  0  0 ]  [ 0  0  1  0  0 ]  [ 0  0  0  1  0 ]  [ 1  0  0  0  0 ]  [ 0  0  0  1  0 ]  [ 0  0  0  0  1 ]  [ 0  1  0  0  0 ]  [ 0  0  0  1  0 ]  [ 0  0  1  0  0 ]  [ 0  0  0  0  1 ]  [ 0  0  0  0  1 ]  [ 0  1  0  0  0 ]  [ 0  0  0  0  1 ]  [ 0  1  0  0  0 ]  [ 0  1  0  0  0 ]  [ 0  0  0  1  0 ]  [ 0  0  0  0  1 ]  [ 0  0  0  0  1 ]  [ 0  0  0  1  0 ]  [ 0  0  0  0  1 ]  [ 0  0  0  0  1 ]  [ 1  0  0  0  0 ]  [ 1  0  0  0  0 ]  [ 0  0  0  1  0 ]  [ 0  1  0  0  0 ]  [ 0  0  1  0  0 ]  [ 0  0  1  0  0 ]  [ 0  0  0  0  1 ]  [ 1  0  0  0  0 ]  [ 0  0  1  0  0 ]  [ 0  1  0  0  0 ]  [ 1  0  0  0  0 ]  [ 0  0  0  1  0 ]  [ 0  1  0  0  0 ]  [ 1  0  0  0  0 ]  [ 0  0  0  1  0 ]  [ 0  1  0  0  0 ]  [ 0  1  0  0  0 ]  [ 0  0  0  0  1 ]  [ 1  0  0  0  0 ]  [ 1  0  0  0  0 ]  [ 1  0  0  0  0 ]  [ 0  0  0  0  1 ]  [ 0  0  1  0  0 ]  [ 0  0  0  1  0 ]  [ 0  0  0  1  0 ]  [ 0  0  0  0  1 ]  [ 0  1  0  0  0 ]  [ 0  0  1  0  0 ]  [ 0  1  0  0  0 ]  [ 0  1  0  0  0 ]  [ 0  0  0  1  0 ]  [ 0  0  0  0  1 ]  [ 0  0  1  0  0 ]  [ 0  1  0  0  0 ]  [ 0  0  1  0  0 ]  [ 1  0  0  0  0 ]  [ 1  0  0  0  0 ]  [ 0  1  0  0  0 ]  [ 0  0  0  1  0 ]  [ 1  0  0  0  0 ]  [ 1  0  0  0  0 ]  [ 0  0  1  0  0 ]  [ 0  1  0  0  0 ]  [ 1  0  0  0  0 ]  [ 0  1  0  0  0 ]  [ 0  1  0  0  0 ]  [ 0  0  0  0  1 ]  [ 1  0  0  0  0 ]  [ 1  0  0  0  0 ]  [ 0  0  0  1  0 ]  [ 1  0  0  0  0 ]  [ 0  0  0  0  1 ]  [ 0  0  1  0  0 ]  [ 0  0  0  1  0 ]  [ 0  0  1  0  0 ]  [ 1  0  0  0  0 ]  [ 1  0  0  0  0 ]  [ 0  0  1  0  0 ]  [ 0  1  0  0  0 ]  [ 0  0  0  0  1 ]  [ 0  0  1  0  0 ]  [ 0  0  0  1  0 ]  [ 0  0  0  1  0 ]  [ 0  1  0  0  0 ]  [ 0  0  1  0  0 ]  [ 0  0  1  0  0 ]  [ 0  0  0  0  1 ]  [ 0  0  1  0  0 ]  [ 0  1  0  0  0 ]  [ 0  1  0  0  0 ]  [ 1  0  0  0  0 ]  [ 0  0  0  1  0 ]  [ 0  0  0  1  0 ]  [ 0  0  0  0  1 ]  [ 0  0  0  1  0 ]  [ 0  0  0  0  1 ]  [ 0  0  0  1  0 ]  [ 0  1  0  0  0 ]  [ 0  1  0  0  0 ]  [ 1  0  0  0  0 ]  [ 1  0  0  0  0 ]  [ 0  0  0  0  1 ]  [ 0  0  0  0  1 ]  [ 1  0  0  0  0 ]  [ 0  1  0  0  0 ]  [ 0  0  0  0  1 ]  [ 0  0  0  1  0 ]  [ 0  0  0  1  0 ]  [ 0  0  1  0  0 ]  [ 1  0  0  0  0 ]  [ 0  0  1  0  0 ]  [ 0  1  0  0  0 ]  [ 0  0  0  0  1 ]  [ 1  0  0  0  0 ]  [ 0  1  0  0  0 ]  [ 1  0  0  0  0 ]  [ 0  0  1  0  0 ]  [ 0  0  0  0  1 ]  [ 0  0  0  0  1 ]  [ 0  0  0  1  0 ] ];

ObjRequests = {  <1,3,198>, <2,3,3>, <3,3,12>, <4,3,41>, <5,3,50>, <6,3,19>, <7,3,8>, <8,3,8>, <9,3,10>, <10,3,1>, <11,3,30>, <12,3,2>, <13,3,11>, <14,3,1>, <15,3,1>, <16,3,5>, <17,3,3>, <18,3,20>, <19,3,9>, <20,3,2>, <21,3,16>, <22,3,13>, <23,3,1>, <24,3,9>, <25,3,8>, <26,3,10>, <27,3,3>, <28,3,10>, <29,3,2>, <30,3,3>, <31,3,5>, <32,3,4>, <33,3,4>, <34,3,2>, <35,3,1>, <36,3,2>, <37,3,7>, <38,3,2>, <39,3,1>, <42,3,5>, <43,3,2>, <44,3,2>, <45,3,3>, <46,3,1>, <47,3,1>, <49,3,1>, <50,3,3>, <51,3,3>, <52,3,5>, <53,3,1>, <54,3,1>, <55,3,1>, <56,3,3>, <57,3,1>, <58,3,1>, <59,3,1>, <60,3,2>, <61,3,1>, <63,3,4>, <64,3,3>, <65,3,4>, <66,3,4>, <70,3,3>, <72,3,2>, <73,3,1>, <75,3,2>, <77,3,1>, <78,3,1>, <79,3,3>, <80,3,1>, <81,3,2>, <83,3,1>, <88,3,1>, <91,3,1>, <92,3,2>, <93,3,1>, <94,3,1>, <99,3,1>, <102,3,1>, <103,3,3>, <104,3,1>, <105,3,3>, <109,3,2>, <110,3,1>, <112,3,1>, <113,3,1>, <114,3,1>, <115,3,2>, <116,3,1>, <117,3,1>, <118,3,1>, <119,3,1>, <121,3,1>, <123,3,1>, <124,3,1>, <126,3,1>, <127,3,1>, <128,3,1>, <131,3,2>, <132,3,1>, <134,3,1>, <135,3,1>, <136,3,2>, <139,3,2>, <140,3,3>, <141,3,1>, <143,3,1>, <144,3,3>, <147,3,2>, <149,3,1>, <150,3,1>, <151,3,1>, <154,3,1>, <156,3,1>, <158,3,1>, <159,3,1>, <160,3,2>, <161,3,3>, <162,3,3>, <163,3,1>, <167,3,2>, <171,3,1>, <172,3,1>, <174,3,1>, <175,3,1>, <178,3,1>, <182,3,3>, <183,3,1>, <185,3,1>, <189,3,1>, <192,3,1>, <193,3,1>, <197,3,1>, <199,3,1>, <201,3,1>, <202,3,1>, <203,3,1>, <204,3,1>, <206,3,1>, <207,3,1>, <209,3,4>, <211,3,1>, <212,3,1>, <217,3,2>, <218,3,1>, <219,3,1>, <222,3,1>, <226,3,1>, <227,3,1>, <229,3,1>, <230,3,1>, <235,3,1>, <236,3,1>, <238,3,1>, <241,3,1>, <242,3,1>, <252,3,1>, <256,3,1>, <264,3,6>, <265,3,1>, <268,3,1>, <269,3,1>, <271,3,1>, <273,3,1>, <274,3,1>, <275,3,1>, <277,3,3>, <278,3,2>, <284,3,1>, <286,3,1>, <295,3,2>, <298,3,1>, <299,3,1>, <302,3,5>, <306,3,2>, <317,3,2>, <319,3,1>, <321,3,1>, <322,3,1>, <325,3,2>, <326,3,1>, <327,3,1>, <335,3,1>, <338,3,1>, <344,3,1>, <347,3,1>, <358,3,1>, <362,3,2>, <367,3,1>, <368,3,1>, <373,3,1>, <374,3,1>, <380,3,2>, <382,3,3>, <389,3,1>, <392,3,1>, <400,3,1>, <404,3,1>, <407,3,1>, <410,3,2>, <411,3,1>, <412,3,3>, <414,3,1>, <417,3,1>, <426,3,1>, <438,3,1>, <443,3,1>, <445,3,1>, <452,3,4>, <466,3,1>, <467,3,1>, <469,3,1>, <472,3,1>, <481,3,1>, <482,3,1>, <486,3,1>, <494,3,1>, <496,3,1>, <1,4,15>, <2,4,264>, <3,4,65>, <4,4,32>, <5,4,3>, <6,4,3>, <7,4,4>, <8,4,13>, <9,4,21>, <10,4,7>, <11,4,2>, <12,4,3>, <13,4,5>, <14,4,1>, <15,4,7>, <16,4,2>, <17,4,15>, <18,4,4>, <19,4,2>, <20,4,1>, <21,4,1>, <22,4,6>, <23,4,4>, <24,4,8>, <25,4,1>, <26,4,3>, <28,4,3>, <29,4,2>, <30,4,7>, <31,4,10>, <32,4,6>, <33,4,2>, <34,4,4>, <35,4,3>, <36,4,2>, <37,4,3>, <38,4,4>, <39,4,2>, <41,4,3>, <42,4,2>, <43,4,4>, <44,4,2>, <46,4,1>, <47,4,1>, <48,4,4>, <50,4,1>, <51,4,5>, <53,4,5>, <54,4,1>, <55,4,2>, <56,4,2>, <57,4,6>, <58,4,5>, <59,4,1>, <60,4,1>, <61,4,6>, <62,4,2>, <66,4,2>, <67,4,1>, <68,4,2>, <71,4,1>, <72,4,2>, <74,4,2>, <75,4,1>, <76,4,4>, <77,4,1>, <78,4,5>, <79,4,1>, <80,4,2>, <81,4,2>, <82,4,3>, <85,4,1>, <86,4,1>, <87,4,2>, <88,4,5>, <89,4,3>, <90,4,5>, <91,4,1>, <92,4,2>, <94,4,1>, <95,4,2>, <97,4,2>, <98,4,1>, <99,4,1>, <101,4,1>, <102,4,1>, <104,4,1>, <106,4,1>, <109,4,2>, <110,4,2>, <111,4,1>, <112,4,1>, <114,4,2>, <119,4,1>, <120,4,1>, <121,4,1>, <123,4,1>, <125,4,1>, <126,4,4>, <129,4,1>, <130,4,1>, <132,4,5>, <135,4,2>, <136,4,1>, <137,4,1>, <141,4,1>, <142,4,1>, <143,4,1>, <144,4,1>, <146,4,1>, <147,4,1>, <148,4,1>, <152,4,1>, <155,4,2>, <156,4,1>, <157,4,1>, <158,4,2>, <160,4,1>, <161,4,1>, <163,4,1>, <166,4,3>, <167,4,1>, <168,4,1>, <169,4,2>, <170,4,1>, <171,4,1>, <173,4,4>, <174,4,2>, <175,4,1>, <176,4,1>, <177,4,3>, <178,4,1>, <179,4,1>, <180,4,1>, <182,4,1>, <183,4,2>, <188,4,3>, <190,4,2>, <192,4,1>, <193,4,1>, <197,4,1>, <198,4,1>, <201,4,2>, <202,4,1>, <204,4,1>, <207,4,1>, <208,4,1>, <209,4,1>, <210,4,1>, <212,4,1>, <220,4,3>, <222,4,1>, <226,4,1>, <228,4,1>, <231,4,1>, <232,4,1>, <233,4,1>, <235,4,1>, <240,4,1>, <243,4,1>, <248,4,1>, <249,4,1>, <250,4,1>, <253,4,1>, <254,4,1>, <256,4,1>, <257,4,1>, <258,4,1>, <263,4,1>, <264,4,1>, <266,4,2>, <270,4,1>, <271,4,1>, <272,4,1>, <273,4,2>, <279,4,1>, <288,4,1>, <290,4,1>, <297,4,1>, <302,4,1>, <304,4,1>, <305,4,1>, <313,4,1>, <317,4,1>, <319,4,1>, <324,4,2>, <325,4,1>, <327,4,1>, <328,4,1>, <331,4,1>, <339,4,1>, <344,4,1>, <345,4,1>, <353,4,1>, <355,4,1>, <358,4,1>, <362,4,1>, <369,4,1>, <382,4,1>, <385,4,1>, <388,4,1>, <402,4,1>, <408,4,4>, <411,4,1>, <424,4,1>, <427,4,1>, <431,4,1>, <437,4,1>, <445,4,1>, <446,4,1>, <447,4,1>, <448,4,1>, <451,4,1>, <458,4,1>, <461,4,1>, <472,4,2>, <476,4,1>, <479,4,1>, <482,4,1>, <486,4,1>, <493,4,1>, <1,5,211>, <2,5,9>, <3,5,90>, <4,5,3>, <5,5,45>, <6,5,18>, <7,5,2>, <8,5,1>, <9,5,14>, <10,5,9>, <11,5,26>, <12,5,30>, <13,5,1>, <14,5,8>, <15,5,8>, <16,5,17>, <18,5,18>, <19,5,10>, <20,5,4>, <21,5,7>, <22,5,9>, <23,5,8>, <24,5,1>, <25,5,1>, <26,5,8>, <27,5,6>, <28,5,1>, <29,5,1>, <30,5,4>, <31,5,2>, <32,5,3>, <33,5,3>, <34,5,5>, <35,5,3>, <36,5,2>, <37,5,1>, <38,5,1>, <39,5,3>, <40,5,4>, <41,5,1>, <42,5,7>, <43,5,6>, <44,5,10>, <45,5,7>, <47,5,3>, <48,5,6>, <49,5,3>, <50,5,1>, <51,5,1>, <52,5,2>, <53,5,1>, <54,5,3>, <55,5,1>, <57,5,1>, <58,5,2>, <59,5,3>, <60,5,3>, <61,5,1>, <64,5,2>, <65,5,1>, <66,5,2>, <67,5,7>, <68,5,2>, <69,5,4>, <70,5,1>, <71,5,1>, <75,5,1>, <77,5,1>, <78,5,1>, <80,5,1>, <81,5,1>, <84,5,2>, <87,5,1>, <88,5,1>, <89,5,1>, <90,5,1>, <93,5,1>, <94,5,1>, <95,5,1>, <97,5,1>, <98,5,1>, <99,5,1>, <100,5,2>, <103,5,1>, <104,5,1>, <107,5,1>, <109,5,2>, <110,5,1>, <111,5,1>, <113,5,1>, <115,5,1>, <116,5,3>, <117,5,1>, <118,5,1>, <123,5,1>, <124,5,1>, <125,5,1>, <126,5,3>, <127,5,1>, <128,5,1>, <132,5,3>, <135,5,1>, <136,5,1>, <138,5,2>, <139,5,1>, <141,5,1>, <142,5,2>, <143,5,3>, <144,5,3>, <146,5,2>, <147,5,2>, <148,5,1>, <149,5,1>, <153,5,1>, <154,5,1>, <155,5,1>, <156,5,1>, <158,5,1>, <159,5,1>, <160,5,2>, <161,5,1>, <163,5,1>, <164,5,1>, <166,5,1>, <167,5,1>, <168,5,1>, <169,5,1>, <170,5,5>, <171,5,1>, <174,5,1>, <176,5,1>, <177,5,1>, <180,5,2>, <189,5,1>, <190,5,1>, <191,5,1>, <193,5,1>, <198,5,1>, <200,5,1>, <202,5,1>, <203,5,1>, <207,5,1>, <211,5,1>, <212,5,2>, <213,5,2>, <217,5,1>, <221,5,1>, <225,5,2>, <226,5,2>, <230,5,1>, <233,5,1>, <241,5,1>, <242,5,1>, <243,5,1>, <244,5,1>, <251,5,2>, <257,5,1>, <258,5,2>, <261,5,1>, <264,5,2>, <271,5,2>, <273,5,1>, <275,5,1>, <280,5,1>, <288,5,1>, <296,5,1>, <307,5,1>, <308,5,1>, <317,5,1>, <319,5,1>, <322,5,1>, <325,5,1>, <327,5,1>, <328,5,1>, <331,5,1>, <334,5,1>, <338,5,2>, <344,5,1>, <345,5,1>, <347,5,1>, <348,5,1>, <349,5,1>, <358,5,1>, <365,5,2>, <369,5,1>, <373,5,1>, <391,5,1>, <392,5,2>, <394,5,1>, <396,5,1>, <402,5,1>, <403,5,2>, <408,5,2>, <411,5,1>, <423,5,1>, <431,5,1>, <436,5,1>, <441,5,2>, <458,5,1>, <467,5,1>, <468,5,1>, <482,5,1>, <486,5,1>, <493,5,1>, <496,5,1>, <1,2,25>, <2,2,13>, <3,2,23>, <4,2,47>, <5,2,5>, <6,2,11>, <7,2,16>, <8,2,43>, <9,2,8>, <10,2,6>, <11,2,1>, <12,2,6>, <13,2,7>, <14,2,23>, <15,2,13>, <17,2,15>, <18,2,1>, <19,2,1>, <20,2,18>, <21,2,2>, <22,2,3>, <23,2,9>, <24,2,1>, <25,2,8>, <26,2,6>, <27,2,3>, <28,2,2>, <29,2,6>, <30,2,4>, <31,2,2>, <32,2,10>, <33,2,3>, <34,2,6>, <35,2,1>, <36,2,1>, <37,2,8>, <38,2,5>, <39,2,6>, <40,2,3>, <41,2,2>, <43,2,1>, <44,2,2>, <45,2,2>, <46,2,4>, <47,2,1>, <48,2,1>, <49,2,1>, <50,2,8>, <51,2,4>, <52,2,1>, <53,2,9>, <54,2,4>, <55,2,3>, <56,2,4>, <57,2,1>, <58,2,1>, <59,2,6>, <60,2,5>, <61,2,4>, <63,2,4>, <64,2,1>, <66,2,3>, <67,2,2>, <68,2,4>, <69,2,2>, <70,2,2>, <71,2,2>, <72,2,1>, <73,2,3>, <74,2,6>, <77,2,1>, <78,2,1>, <82,2,1>, <83,2,1>, <85,2,1>, <86,2,1>, <87,2,1>, <88,2,1>, <89,2,1>, <90,2,2>, <91,2,5>, <93,2,1>, <95,2,1>, <97,2,5>, <98,2,2>, <100,2,2>, <103,2,2>, <105,2,3>, <106,2,1>, <107,2,1>, <110,2,2>, <112,2,1>, <113,2,4>, <114,2,4>, <115,2,4>, <116,2,1>, <118,2,1>, <119,2,2>, <120,2,1>, <121,2,1>, <122,2,2>, <123,2,1>, <124,2,4>, <125,2,1>, <127,2,6>, <129,2,1>, <132,2,2>, <133,2,1>, <136,2,3>, <137,2,1>, <142,2,5>, <144,2,1>, <146,2,1>, <148,2,2>, <149,2,1>, <152,2,1>, <154,2,1>, <155,2,1>, <158,2,1>, <159,2,1>, <160,2,1>, <162,2,1>, <163,2,1>, <164,2,3>, <166,2,1>, <167,2,1>, <170,2,1>, <171,2,1>, <172,2,1>, <176,2,1>, <178,2,1>, <182,2,1>, <184,2,1>, <186,2,1>, <190,2,1>, <191,2,1>, <193,2,2>, <195,2,1>, <199,2,1>, <200,2,1>, <202,2,1>, <207,2,1>, <209,2,1>, <213,2,1>, <225,2,1>, <228,2,1>, <231,2,1>, <233,2,2>, <234,2,1>, <235,2,3>, <238,2,1>, <239,2,1>, <242,2,1>, <243,2,2>, <251,2,1>, <256,2,1>, <257,2,2>, <259,2,1>, <263,2,1>, <270,2,1>, <271,2,1>, <272,2,3>, <277,2,1>, <281,2,1>, <284,2,1>, <286,2,2>, <288,2,1>, <290,2,1>, <291,2,1>, <292,2,1>, <293,2,1>, <297,2,1>, <301,2,1>, <302,2,1>, <307,2,1>, <317,2,2>, <327,2,2>, <330,2,1>, <331,2,2>, <334,2,1>, <335,2,1>, <349,2,2>, <364,2,1>, <368,2,1>, <375,2,1>, <380,2,1>, <383,2,1>, <391,2,1>, <394,2,1>, <400,2,1>, <403,2,1>, <408,2,1>, <410,2,1>, <412,2,1>, <414,2,1>, <417,2,1>, <418,2,2>, <426,2,1>, <430,2,1>, <436,2,1>, <445,2,1>, <452,2,1>, <454,2,1>, <455,2,1>, <458,2,1>, <461,2,1>, <462,2,1>, <468,2,1>, <472,2,1>, <474,2,1>, <476,2,1>, <482,2,1>, <486,2,1>, <493,2,1>, <1,1,154>, <2,1,24>, <3,1,8>, <4,1,24>, <5,1,13>, <6,1,49>, <7,1,42>, <8,1,25>, <9,1,2>, <10,1,32>, <11,1,5>, <12,1,2>, <13,1,13>, <14,1,5>, <16,1,8>, <17,1,1>, <18,1,4>, <19,1,4>, <20,1,1>, <21,1,1>, <22,1,5>, <23,1,9>, <24,1,5>, <25,1,7>, <26,1,3>, <27,1,7>, <28,1,7>, <29,1,3>, <30,1,3>, <31,1,3>, <33,1,2>, <34,1,6>, <35,1,7>, <36,1,13>, <37,1,3>, <38,1,1>, <39,1,5>, <40,1,3>, <41,1,5>, <42,1,2>, <43,1,3>, <44,1,3>, <46,1,1>, <47,1,6>, <48,1,1>, <49,1,3>, <50,1,4>, <51,1,1>, <52,1,2>, <53,1,1>, <54,1,3>, <55,1,1>, <56,1,1>, <57,1,2>, <58,1,1>, <59,1,1>, <60,1,5>, <61,1,1>, <62,1,1>, <63,1,2>, <64,1,1>, <65,1,3>, <66,1,2>, <68,1,4>, <69,1,4>, <70,1,1>, <71,1,1>, <72,1,7>, <73,1,3>, <74,1,1>, <76,1,5>, <77,1,1>, <79,1,1>, <80,1,3>, <81,1,1>, <83,1,1>, <84,1,3>, <85,1,2>, <86,1,3>, <87,1,1>, <90,1,2>, <92,1,1>, <95,1,1>, <98,1,2>, <100,1,1>, <101,1,5>, <102,1,2>, <107,1,3>, <109,1,2>, <110,1,1>, <111,1,1>, <112,1,2>, <113,1,1>, <114,1,1>, <115,1,1>, <116,1,1>, <117,1,3>, <118,1,5>, <120,1,1>, <121,1,1>, <124,1,1>, <125,1,1>, <126,1,2>, <127,1,1>, <128,1,3>, <129,1,1>, <130,1,2>, <131,1,1>, <136,1,2>, <137,1,1>, <141,1,1>, <144,1,1>, <149,1,2>, <151,1,2>, <155,1,1>, <157,1,1>, <159,1,1>, <160,1,1>, <162,1,2>, <164,1,1>, <166,1,1>, <167,1,3>, <170,1,2>, <171,1,2>, <172,1,1>, <174,1,1>, <177,1,1>, <178,1,1>, <179,1,1>, <180,1,2>, <181,1,1>, <184,1,1>, <186,1,1>, <188,1,2>, <191,1,4>, <192,1,1>, <193,1,1>, <195,1,2>, <199,1,1>, <201,1,1>, <204,1,1>, <207,1,3>, <208,1,1>, <209,1,1>, <212,1,1>, <213,1,1>, <215,1,1>, <216,1,1>, <218,1,1>, <219,1,2>, <220,1,1>, <221,1,1>, <222,1,2>, <226,1,1>, <231,1,4>, <232,1,1>, <234,1,1>, <235,1,1>, <237,1,1>, <238,1,2>, <239,1,2>, <242,1,1>, <245,1,1>, <248,1,2>, <252,1,1>, <253,1,2>, <256,1,2>, <265,1,1>, <266,1,1>, <269,1,3>, <272,1,1>, <275,1,1>, <278,1,1>, <290,1,1>, <292,1,1>, <295,1,1>, <296,1,1>, <299,1,1>, <302,1,1>, <305,1,1>, <315,1,1>, <328,1,1>, <337,1,1>, <338,1,1>, <343,1,1>, <345,1,1>, <348,1,1>, <349,1,1>, <353,1,1>, <355,1,1>, <362,1,1>, <367,1,1>, <380,1,1>, <382,1,1>, <387,1,2>, <388,1,1>, <389,1,1>, <401,1,1>, <403,1,1>, <407,1,1>, <408,1,1>, <409,1,1>, <411,1,1>, <412,1,1>, <416,1,1>, <417,1,1>, <424,1,1>, <438,1,1>, <452,1,1>, <458,1,1>, <460,1,1>, <462,1,1>, <467,1,1>, <469,1,1>, <472,1,1>, <479,1,1>, <486,1,1>, <487,1,1>, <496,1,1>, <497,1,1> };

MaxCacheStorageAtSingleAS= [ 656.25  656.25  656.25  656.25  656.25 ] ;

MaxCacheStorage = 3281.25 ;
SolutionGap = 0.01 ;
